c colouring generated by benchmark framework
p edge 87 406
v 1 8
v 2 0
v 3 6
v 4 3
v 5 5
v 6 1
v 7 6
v 8 10
v 9 1
v 10 0
v 11 5
v 12 2
v 13 1
v 14 0
v 15 1
v 16 10
v 17 1
v 18 5
v 19 7
v 20 7
v 21 10
v 22 0
v 23 3
v 24 2
v 25 7
v 26 7
v 27 2
v 28 9
v 29 6
v 30 0
v 31 7
v 32 9
v 33 5
v 34 1
v 35 5
v 36 0
v 37 0
v 38 3
v 39 1
v 40 2
v 41 8
v 42 8
v 43 9
v 44 0
v 45 9
v 46 5
v 47 0
v 48 9
v 49 2
v 50 8
v 51 2
v 52 3
v 53 10
v 54 3
v 55 10
v 56 2
v 57 0
v 58 3
v 59 1
v 60 5
v 61 10
v 62 0
v 63 7
v 64 0
v 65 6
v 66 6
v 67 9
v 68 0
v 69 1
v 70 7
v 71 0
v 72 1
v 73 5
v 74 8
v 75 2
v 76 8
v 77 9
v 78 0
v 79 1
v 80 1
v 81 3
v 82 9
v 83 4
v 84 6
v 85 0
v 86 1
v 87 2
